c Result of efficient AIG-to-CNF conversion using package CNF
p cnf 248 879
-2 3 43 100 134 0
-2 -3 -43 100 134 0
2 -100 0
2 3 -43 0
2 -134 0
2 -3 43 0
3 -243 4 -30 0
3 243 4 -15 0
-3 -4 0
-3 -243 30 0
-3 243 15 0
-4 5 11 13 14 0
4 -14 0
4 -5 0
4 -13 0
4 -11 0
-5 240 241 6 8 0
5 -240 0
5 -8 0
5 -6 0
5 -241 0
-6 232 238 239 7 0
6 -7 0
6 -239 0
6 -232 0
6 -238 0
-7 236 237 242 0
7 -236 0
7 -242 0
7 -237 0
-8 233 234 235 9 0
8 -9 0
8 -235 0
8 -233 0
8 -234 0
-9 228 229 10 0
9 -10 0
9 -229 0
9 -228 0
-10 224 225 230 231 0
10 -231 0
10 -230 0
10 -224 0
10 -225 0
-11 222 226 227 12 0
11 -12 0
11 -227 0
11 -222 0
11 -226 0
-12 220 221 0
12 -220 0
12 -221 0
-13 216 223 0
13 -216 0
13 -223 0
-14 217 218 219 0
14 -217 0
14 -219 0
14 -218 0
-15 244 16 0
-15 -244 23 0
15 -244 -23 0
15 244 -16 0
-16 245 17 0
-16 -245 20 0
16 -245 -20 0
16 245 -17 0
-17 246 19 0
-17 -246 18 0
17 -246 -18 0
17 246 -19 0
18 -219 -247 0
18 -218 247 0
-18 218 247 0
-18 219 -247 0
19 -217 -247 0
19 -216 247 0
-19 216 247 0
-19 217 -247 0
20 246 -21 0
20 -246 -22 0
-20 -246 22 0
-20 246 21 0
21 -221 -247 0
21 -220 247 0
-21 220 247 0
-21 221 -247 0
22 -223 -247 0
22 -222 247 0
-22 222 247 0
-22 223 -247 0
23 245 -24 0
23 -245 -27 0
-23 -245 27 0
-23 245 24 0
24 246 -25 0
24 -246 -26 0
-24 -246 26 0
-24 246 25 0
25 -225 -247 0
25 -224 247 0
-25 224 247 0
-25 225 -247 0
26 -227 -247 0
26 -226 247 0
-26 226 247 0
-26 227 -247 0
27 246 -28 0
27 -246 -29 0
-27 -246 29 0
-27 246 28 0
28 -229 -247 0
28 -228 247 0
-28 228 247 0
-28 229 -247 0
29 -231 -247 0
29 -230 247 0
-29 230 247 0
-29 231 -247 0
30 244 -31 0
30 -244 -38 0
-30 -244 38 0
-30 244 31 0
31 245 -32 0
31 -245 -35 0
-31 -245 35 0
-31 245 32 0
32 246 -33 0
32 -246 -34 0
-32 -246 34 0
-32 246 33 0
33 -233 -247 0
33 -232 247 0
-33 232 247 0
-33 233 -247 0
34 -235 -247 0
34 -234 247 0
-34 234 247 0
-34 235 -247 0
35 246 -36 0
35 -246 -37 0
-35 -246 37 0
-35 246 36 0
36 -237 -247 0
36 -236 247 0
-36 236 247 0
-36 237 -247 0
37 -239 -247 0
37 -238 247 0
-37 238 247 0
-37 239 -247 0
38 245 -39 0
38 -245 -42 0
-38 -245 42 0
-38 245 39 0
39 246 -40 0
39 -246 -41 0
-39 -246 41 0
-39 246 40 0
40 -241 -247 0
40 -240 247 0
-40 240 247 0
-40 241 -247 0
41 -243 -247 0
41 -242 247 0
-41 242 247 0
-41 243 -247 0
-42 245 246 -247 0
-42 244 246 247 0
42 -246 0
42 -244 247 0
42 -245 -247 0
43 44 -52 0
43 44 -96 0
-43 -44 0
-43 52 96 0
44 -245 -45 0
-44 245 0
-44 45 0
45 -243 4 -49 0
45 243 4 -46 0
-45 -4 0
-45 -243 49 0
-45 243 46 0
-46 244 47 0
-46 -244 48 0
46 -244 -48 0
46 244 -47 0
-47 -245 24 0
-47 245 20 0
47 245 -20 0
47 -245 -24 0
48 245 -27 0
48 -245 -32 0
-48 -245 32 0
-48 245 27 0
49 244 -50 0
49 -244 -51 0
-49 -244 51 0
-49 244 50 0
50 245 -35 0
50 -245 -39 0
-50 -245 39 0
-50 245 35 0
51 245 -246 0
51 -244 245 247 0
-51 -245 0
-51 246 -247 0
-51 244 246 0
-52 53 81 0
-52 246 53 0
52 -53 0
52 -246 -81 0
53 -246 -54 0
-53 246 0
-53 54 0
54 -243 4 -70 0
54 243 4 -55 0
-54 -4 0
-54 -243 70 0
-54 243 55 0
-55 244 56 0
-55 -244 63 0
55 -244 -63 0
55 244 -56 0
-56 245 57 0
-56 -245 60 0
56 -245 -60 0
56 245 -57 0
-57 246 59 0
-57 -246 58 0
57 -246 -58 0
57 246 -59 0
58 -222 -247 0
58 -221 247 0
-58 221 247 0
-58 222 -247 0
59 -220 -247 0
59 -219 247 0
-59 219 247 0
-59 220 -247 0
60 246 -61 0
60 -246 -62 0
-60 -246 62 0
-60 246 61 0
61 -224 -247 0
61 -223 247 0
-61 223 247 0
-61 224 -247 0
62 -226 -247 0
62 -225 247 0
-62 225 247 0
-62 226 -247 0
63 245 -64 0
63 -245 -67 0
-63 -245 67 0
-63 245 64 0
64 246 -65 0
64 -246 -66 0
-64 -246 66 0
-64 246 65 0
65 -228 -247 0
65 -227 247 0
-65 227 247 0
-65 228 -247 0
66 -230 -247 0
66 -229 247 0
-66 229 247 0
-66 230 -247 0
67 246 -68 0
67 -246 -69 0
-67 -246 69 0
-67 246 68 0
68 -232 -247 0
68 -231 247 0
-68 231 247 0
-68 232 -247 0
69 -234 -247 0
69 -233 247 0
-69 233 247 0
-69 234 -247 0
70 244 -71 0
70 -244 -78 0
-70 -244 78 0
-70 244 71 0
71 245 -72 0
71 -245 -75 0
-71 -245 75 0
-71 245 72 0
72 246 -73 0
72 -246 -74 0
-72 -246 74 0
-72 246 73 0
73 -236 -247 0
73 -235 247 0
-73 235 247 0
-73 236 -247 0
74 -238 -247 0
74 -237 247 0
-74 237 247 0
-74 238 -247 0
75 246 -76 0
75 -246 -77 0
-75 -246 77 0
-75 246 76 0
76 -240 -247 0
76 -239 247 0
-76 239 247 0
-76 240 -247 0
77 -242 -247 0
77 -241 247 0
-77 241 247 0
-77 242 -247 0
78 245 -79 0
-78 -245 0
-78 79 0
79 -245 -246 0
79 246 -80 0
79 -246 -247 0
-79 246 80 0
-79 245 -246 247 0
80 -244 -247 0
80 -243 247 0
-80 243 247 0
-80 244 -247 0
81 -243 4 -89 0
81 243 4 -82 0
-81 -4 0
-81 -243 89 0
-81 243 82 0
-82 244 83 0
-82 -244 86 0
82 -244 -86 0
82 244 -83 0
-83 245 84 0
-83 -245 85 0
83 -245 -85 0
83 245 -84 0
-84 -246 21 0
-84 246 18 0
84 246 -18 0
84 -246 -21 0
85 246 -22 0
85 -246 -25 0
-85 -246 25 0
-85 246 22 0
86 245 -87 0
86 -245 -88 0
-86 -245 88 0
-86 245 87 0
87 246 -26 0
87 -246 -28 0
-87 -246 28 0
-87 246 26 0
88 246 -29 0
88 -246 -33 0
-88 -246 33 0
-88 246 29 0
89 244 -90 0
89 -244 -93 0
-89 -244 93 0
-89 244 90 0
90 245 -91 0
90 -245 -92 0
-90 -245 92 0
-90 245 91 0
91 246 -34 0
91 -246 -36 0
-91 -246 36 0
-91 246 34 0
92 246 -37 0
92 -246 -40 0
-92 -246 40 0
-92 246 37 0
93 245 -94 0
93 -245 246 -247 0
-93 -245 -246 0
-93 245 94 0
-93 -245 247 0
94 246 -41 0
94 -246 -95 0
-94 -246 95 0
-94 246 41 0
95 -245 -247 0
95 -244 247 0
-95 244 247 0
-95 245 -247 0
96 244 -45 0
96 45 -97 0
-96 -244 -45 0
-96 45 97 0
-97 54 98 0
-97 54 -99 0
97 -54 0
97 -98 99 0
-98 3 52 0
-98 247 52 0
98 -52 0
98 -247 -3 0
99 -245 -81 0
-99 245 0
-99 81 0
100 53 -116 0
100 4 53 -101 0
-100 -53 0
-100 101 116 0
-100 -4 116 0
-101 243 102 0
-101 -243 110 0
101 -243 -110 0
101 243 -102 0
-102 244 103 0
-102 -244 107 0
102 -244 -107 0
102 244 -103 0
-103 245 104 0
-103 -245 106 0
103 -245 -106 0
103 245 -104 0
-104 246 105 0
-104 -246 59 0
104 -246 -59 0
104 246 -105 0
105 -218 -247 0
105 -217 247 0
-105 217 247 0
-105 218 -247 0
106 246 -58 0
106 -246 -61 0
-106 -246 61 0
-106 246 58 0
107 245 -108 0
107 -245 -109 0
-107 -245 109 0
-107 245 108 0
108 246 -62 0
108 -246 -65 0
-108 -246 65 0
-108 246 62 0
109 246 -66 0
109 -246 -68 0
-109 -246 68 0
-109 246 66 0
110 244 -111 0
110 -244 -114 0
-110 -244 114 0
-110 244 111 0
111 245 -112 0
111 -245 -113 0
-111 -245 113 0
-111 245 112 0
112 246 -69 0
112 -246 -73 0
-112 -246 73 0
-112 246 69 0
113 246 -74 0
113 -246 -76 0
-113 -246 76 0
-113 246 74 0
-114 -245 -246 0
-114 245 115 0
-114 -245 -247 0
114 245 -115 0
114 -245 246 247 0
115 246 -77 0
115 -246 -80 0
-115 -246 80 0
-115 246 77 0
116 44 -117 0
116 44 -126 -127 0
-116 -44 0
-116 117 126 0
-116 117 127 0
-117 53 118 120 0
117 -53 0
117 -120 0
117 -118 0
118 52 -119 0
-118 -52 0
-118 119 0
119 -244 -45 0
-119 244 0
-119 45 0
120 -243 4 -124 0
120 243 4 -121 0
-120 -4 0
-120 -243 124 0
-120 243 121 0
121 244 -122 0
121 -244 -123 0
-121 -244 123 0
-121 244 122 0
122 245 -106 0
122 -245 -108 0
-122 -245 108 0
-122 245 106 0
123 245 -109 0
123 -245 -112 0
-123 -245 112 0
-123 245 109 0
124 244 -125 0
-124 -244 0
-124 125 0
125 245 -113 0
125 -245 -115 0
-125 -245 115 0
-125 245 113 0
126 -44 53 0
126 -247 53 -81 0
-126 -53 0
-126 44 81 0
-126 247 44 0
127 -243 4 -131 0
127 243 4 -128 0
-127 -4 0
-127 -243 131 0
-127 243 128 0
-128 244 129 0
-128 -244 130 0
128 -244 -130 0
128 244 -129 0
-129 -245 87 0
-129 245 85 0
129 245 -85 0
129 -245 -87 0
130 245 -88 0
130 -245 -91 0
-130 -245 91 0
-130 245 88 0
131 244 -132 0
131 -244 -133 0
-131 -244 133 0
-131 244 132 0
132 245 -92 0
132 -245 -94 0
-132 -245 94 0
-132 245 92 0
133 245 246 -247 0
-133 247 0
-133 -246 0
-133 -245 0
-134 -44 54 151 0
-134 54 135 151 0
134 -151 0
134 -54 0
134 44 -135 0
-135 -120 145 0
-135 136 142 145 0
135 -145 0
135 120 -136 0
135 120 -142 0
136 -243 4 -140 0
136 243 4 -137 0
-136 -4 0
-136 -243 140 0
-136 243 137 0
137 244 -138 0
137 -244 -139 0
-137 -244 139 0
-137 244 138 0
138 245 -60 0
138 -245 -64 0
-138 -245 64 0
-138 245 60 0
139 245 -67 0
139 -245 -72 0
-139 -245 72 0
-139 245 67 0
140 244 -141 0
-140 -244 0
-140 141 0
141 -245 -246 0
141 245 -75 0
141 -245 -80 0
-141 245 75 0
-141 -245 246 80 0
142 244 44 -143 0
142 44 127 -143 0
-142 143 0
-142 -44 0
-142 -244 -127 0
-143 120 144 0
143 -120 0
143 -144 0
144 246 -247 -54 0
144 -246 -45 54 0
-144 -246 -54 0
-144 45 54 0
-144 247 -54 0
-144 246 54 0
145 -146 -148 0
-145 146 0
-145 148 0
-146 245 120 147 0
-146 120 127 147 0
146 -147 0
146 -120 0
146 -245 -127 0
147 -247 -45 0
-147 247 0
-147 45 0
148 -243 4 -150 0
148 243 4 -149 0
-148 -4 0
-148 -243 150 0
-148 243 149 0
149 244 -23 0
149 -244 -31 0
-149 -244 31 0
-149 244 23 0
150 244 -38 0
-150 -244 0
-150 38 0
-151 -247 -45 158 0
-151 45 152 158 0
151 -158 0
151 247 -45 0
151 45 -152 0
-152 -146 -148 153 154 0
-152 146 148 153 154 0
152 -153 0
152 -146 148 0
152 -154 0
152 146 -148 0
153 -246 -136 0
-153 246 0
-153 136 0
154 246 -136 -155 0
154 136 -145 -155 0
-154 155 0
-154 136 145 0
-154 -246 -136 0
155 -243 4 -157 0
155 243 4 -156 0
-155 -4 0
-155 -243 157 0
-155 243 156 0
156 244 -107 0
156 -244 -111 0
-156 -244 111 0
-156 244 107 0
157 244 -114 0
-157 -244 0
-157 114 0
-158 44 -136 171 0
-158 136 159 171 0
158 -171 0
158 136 -159 0
158 -44 -136 0
-159 160 -163 -166 0
-159 160 163 166 0
159 -160 0
159 -163 166 0
159 163 -166 0
160 -243 4 -162 0
160 243 4 -161 0
-160 -4 0
-160 -243 162 0
-160 243 161 0
161 244 -48 0
161 -244 -50 0
-161 -244 50 0
-161 244 48 0
162 244 245 -246 0
-162 246 0
-162 -245 0
-162 -244 0
163 -243 4 -165 0
163 243 4 -164 0
-163 -4 0
-163 -243 165 0
-163 243 164 0
164 244 -63 0
164 -244 -71 0
-164 -244 71 0
-164 244 63 0
165 244 -78 0
-165 -244 0
-165 78 0
-166 154 167 168 0
-166 245 154 167 0
166 -167 0
166 -154 0
166 -245 -168 0
167 -246 44 -148 0
-167 246 0
-167 -44 0
-167 148 0
168 -243 4 -170 0
168 243 4 -169 0
-168 -4 0
-168 -243 170 0
-168 243 169 0
169 244 -86 0
169 -244 -90 0
-169 -244 90 0
-169 244 86 0
170 244 -93 0
-170 -244 0
-170 93 0
-171 -44 172 178 0
-171 148 172 178 0
171 -178 0
171 -172 0
171 44 -148 0
-172 155 173 174 176 0
172 -176 0
172 -174 0
172 -155 0
172 -173 0
173 -163 -166 0
-173 163 0
-173 166 0
174 244 -123 175 0
174 -244 -125 175 0
-174 -175 0
-174 -244 125 0
-174 244 123 0
-175 243 4 0
175 -243 0
175 -4 0
176 -243 4 -177 0
-176 243 0
-176 -4 0
-176 177 0
177 244 245 246 -247 0
-177 247 0
-177 -246 0
-177 -244 0
-177 -245 0
-178 163 179 181 183 0
178 -163 0
178 -183 0
178 -181 0
178 -179 0
179 -243 4 -177 0
179 243 4 -180 0
-179 -4 0
-179 -243 177 0
-179 243 180 0
180 244 -130 0
180 -244 -132 0
-180 -244 132 0
-180 244 130 0
-181 246 182 0
-181 155 182 0
181 -182 0
181 -246 -155 0
182 244 -139 175 0
182 -244 -141 175 0
-182 -175 0
-182 -244 141 0
-182 244 139 0
-183 -173 190 0
-183 160 184 190 0
183 -190 0
183 -160 173 0
183 173 -184 0
184 185 -186 187 0
-184 -185 0
-184 186 0
-184 -187 0
185 -244 -179 0
-185 244 0
-185 179 0
186 -30 175 0
-186 30 0
-186 -175 0
187 174 -188 0
-187 -174 0
-187 188 0
188 -182 189 0
-188 182 0
-188 -189 0
189 174 -185 0
-189 -174 0
-189 185 0
-190 -174 191 202 0
-190 191 197 202 0
190 -202 0
190 -191 0
190 174 -197 0
191 182 -194 0
191 -174 -182 0
191 182 -192 0
-191 174 -182 0
-191 182 192 194 0
192 -246 -193 0
-192 246 0
-192 193 0
193 -110 175 0
-193 110 0
-193 -175 0
-194 184 195 196 0
194 -184 0
194 -196 0
194 -195 0
195 174 -182 0
-195 -174 0
-195 182 0
196 -89 175 0
-196 89 0
-196 -175 0
-197 186 198 200 0
197 -186 0
197 -198 0
197 -200 0
-198 192 199 0
198 -192 0
198 -199 0
199 -246 -196 0
-199 246 0
-199 196 0
200 192 -201 0
200 -174 -188 192 0
-200 -192 0
-200 188 201 0
-200 174 201 0
201 -70 175 0
-201 70 0
-201 -175 0
-202 -246 -193 205 0
-202 193 203 205 0
202 -205 0
202 246 -193 0
202 193 -203 0
203 198 -204 0
-203 -198 0
-203 204 0
204 -49 175 0
-204 49 0
-204 -175 0
-205 199 201 206 207 0
205 -207 0
205 -206 0
205 -199 0
205 -201 0
206 -245 -131 175 0
-206 245 0
-206 131 0
-206 -175 0
-207 208 210 213 214 0
207 -214 0
207 -213 0
207 -208 0
207 -210 0
208 192 -209 0
208 -49 175 192 0
-208 -192 0
-208 -175 209 0
-208 49 209 0
209 -140 175 0
-209 140 0
-209 -175 0
210 -206 -209 0
210 209 -212 0
210 209 -211 0
-210 206 -209 0
-210 209 211 212 0
211 -157 175 0
-211 157 0
-211 -175 0
212 -170 175 0
-212 170 0
-212 -175 0
213 -150 175 206 0
-213 150 0
-213 -175 0
-213 -206 0
-214 162 211 215 0
-214 -175 211 215 0
214 -215 0
214 -211 0
214 -162 175 0
215 -165 175 0
-215 165 0
-215 -175 0
-248 0
2 0

